#######################
Slurm job id: 17497813_347
Running on machine: p46
Running cmd: /nfs/shared/static-builds/gurobi1202 SOFTMEMLIMIT=125 MIPFocus=3 Presolve=2 TimeLimit=300 seed=6 /nfs/models/miplib2010/k16x240.mps.bz2
#######################
Set parameter TimeLimit to value 300
Set parameter SoftMemLimit to value 125
Set parameter MIPFocus to value 3
Set parameter LogFile to value 1202-MIPFocus3-Presolve2-TimeLimit300-k16x240-6.log
Set parameter Presolve to value 2
Set parameter Seed to value 6
Using license file /opt/gurobi/gurobi.lic

Gurobi Optimizer version 12.0.2 build v12.0.2rc0 (linux64 - "Ubuntu 22.04.4 LTS")
Copyright (c) 2025, Gurobi Optimization, LLC

Read MPS format model from file /nfs/models/miplib2010/k16x240.mps.bz2
Reading time = 0.00 seconds
k16x240: 256 rows, 480 columns, 960 nonzeros

Using Gurobi shared library /nfs/shared/static-builds/gurobi1202

CPU model: Intel(R) Xeon(R) E-2388G CPU @ 3.20GHz, instruction set [SSE2|AVX|AVX2|AVX512]
Thread count: 8 physical cores, 16 logical processors, using up to 16 threads

Non-default parameters:
TimeLimit  300
SoftMemLimit  125
MIPFocus  3
Presolve  2
Seed  6

Optimize a model with 256 rows, 480 columns and 960 nonzeros
Model fingerprint: 0x4e80885f
Variable types: 240 continuous, 240 integer (240 binary)
Coefficient statistics:
  Matrix range     [1e+00, 1e+03]
  Objective range  [1e+00, 1e+03]
  Bounds range     [1e+00, 1e+03]
  RHS range        [4e+00, 4e+02]
Found heuristic solution: objective 19315.000000
Presolve time: 0.00s
Presolved: 256 rows, 480 columns, 960 nonzeros
Variable types: 240 continuous, 240 integer (240 binary)
Root relaxation presolve removed 241 rows and 240 columns
Root relaxation presolved: 15 rows, 240 columns, 450 nonzeros


Root relaxation: objective 2.769838e+03, 16 iterations, 0.00 seconds (0.00 work units)

    Nodes    |    Current Node    |     Objective Bounds      |     Work
 Expl Unexpl |  Obj  Depth IntInf | Incumbent    BestBd   Gap | It/Node Time

     0     0 2769.83800    0   14 19315.0000 2769.83800  85.7%     -    0s
H    0     0                    11359.000000 2769.83800  75.6%     -    0s
H    0     0                    11262.000000 2769.83800  75.4%     -    0s
H    0     0                    11244.000000 2769.83800  75.4%     -    0s
H    0     0                    11147.000000 2769.83800  75.2%     -    0s
H    0     0                    11109.000000 8116.87580  26.9%     -    0s
H    0     0                    11079.000000 8116.87580  26.7%     -    0s
     0     0 8116.87580    0   26 11079.0000 8116.87580  26.7%     -    0s
H    0     0                    11077.000000 8182.85928  26.1%     -    0s
H    0     0                    11036.000000 8182.85928  25.9%     -    0s
H    0     0                    11009.000000 8590.83212  22.0%     -    0s
H    0     0                    10933.000000 8590.83212  21.4%     -    0s
H    0     0                    10917.000000 8590.83212  21.3%     -    0s
     0     0 8751.29955    0   23 10917.0000 8751.29955  19.8%     -    0s
     0     0 8810.95744    0   20 10917.0000 8810.95744  19.3%     -    0s
     0     0 8812.41722    0   21 10917.0000 8812.41722  19.3%     -    0s
     0     0 8812.41722    0   18 10917.0000 8812.41722  19.3%     -    0s
     0     0 9046.36529    0   28 10917.0000 9046.36529  17.1%     -    0s
H    0     0                    10869.000000 9046.36529  16.8%     -    0s
H    0     0                    10779.000000 9046.36529  16.1%     -    0s
H    0     0                    10765.000000 9046.36529  16.0%     -    0s
H    0     0                    10763.000000 9046.36529  15.9%     -    0s
     0     0 9058.80512    0   35 10763.0000 9058.80512  15.8%     -    0s
     0     0 9098.96271    0   38 10763.0000 9098.96271  15.5%     -    0s
     0     0 9203.36729    0   28 10763.0000 9203.36729  14.5%     -    0s
     0     0 9207.26262    0   33 10763.0000 9207.26262  14.5%     -    0s
     0     0 9252.89349    0   32 10763.0000 9252.89349  14.0%     -    0s
     0     0 9252.89349    0   32 10763.0000 9252.89349  14.0%     -    0s
H    0     0                    10678.000000 9252.89349  13.3%     -    0s
H    0     0                    10674.000000 9252.89349  13.3%     -    0s
     0     2 9252.89349    0   32 10674.0000 9252.89349  13.3%     -    0s
  3566  2686     cutoff   22      10674.0000 10220.5208  4.25%  94.9    5s
 11427  6233 10429.2400   51    7 10674.0000 10426.0387  2.32%  77.0   10s
 38142   609     cutoff   31      10674.0000 10664.9576  0.08%  43.1   15s

Cutting planes:
  Lift-and-project: 8
  Implied bound: 12
  Dual implied bound: 7
  MIR: 124
  Mixing: 1
  Flow cover: 545
  Flow path: 34
  Zero half: 17
  Network: 23
  Relax-and-lift: 2

Explored 38898 nodes (1650065 simplex iterations) in 15.04 seconds (21.11 work units)
Thread count was 16 (of 16 available processors)

Solution count 10: 10674 10678 10763 ... 11036

Optimal solution found (tolerance 1.00e-04)
Best objective 1.067400000000e+04, best bound 1.067300000000e+04, gap 0.0094%
